* ENCODING=ISO-8859-1
NAME          ./convert/K5010W03.KNP.mps
ROWS
 N  OBJROW            
 L  R0000000          
 L  IC0               
 L  IC1               
 L  IC2               
 L  IC3               
 L  IC4               
 L  IC5               
 L  IC6               
 L  IC7               
 L  IC8               
 L  IC9               
 L  interdictionBudget
COLUMNS
    MARK0000  'MARKER'                 'INTORG'
    C0000000            OBJROW                                  356
    C0000000            R0000000                                872
    C0000000            IC0                                       1
    C0000001            OBJROW                                  662
    C0000001            R0000000                                403
    C0000001            IC1                                       1
    C0000002            OBJROW                                  149
    C0000002            R0000000                                128
    C0000002            IC2                                       1
    C0000003            OBJROW                                  780
    C0000003            R0000000                                449
    C0000003            IC3                                       1
    C0000004            OBJROW                                  134
    C0000004            R0000000                                601
    C0000004            IC4                                       1
    C0000005            OBJROW                                   36
    C0000005            R0000000                                450
    C0000005            IC5                                       1
    C0000006            OBJROW                                  479
    C0000006            R0000000                                359
    C0000006            IC6                                       1
    C0000007            OBJROW                                  420
    C0000007            R0000000                                251
    C0000007            IC7                                       1
    C0000008            OBJROW                                  735
    C0000008            R0000000                                311
    C0000008            IC8                                       1
    C0000009            OBJROW                                  258
    C0000009            R0000000                                 76
    C0000009            IC9                                       1
    x0                  IC0                                       1
    x0                  interdictionBudget                      494
    x1                  IC1                                       1
    x1                  interdictionBudget                      349
    x2                  IC2                                       1
    x2                  interdictionBudget                       22
    x3                  IC3                                       1
    x3                  interdictionBudget                      171
    x4                  IC4                                       1
    x4                  interdictionBudget                      296
    x5                  IC5                                       1
    x5                  interdictionBudget                      713
    x6                  IC6                                       1
    x6                  interdictionBudget                      226
    x7                  IC7                                       1
    x7                  interdictionBudget                       47
    x8                  IC8                                       1
    x8                  interdictionBudget                      403
    x9                  IC9                                       1
    x9                  interdictionBudget                      176
    MARK0001  'MARKER'                 'INTEND'
RHS
    rhs                 R0000000                               1950
    rhs                 IC0                                       1
    rhs                 IC1                                       1
    rhs                 IC2                                       1
    rhs                 IC3                                       1
    rhs                 IC4                                       1
    rhs                 IC5                                       1
    rhs                 IC6                                       1
    rhs                 IC7                                       1
    rhs                 IC8                                       1
    rhs                 IC9                                       1
    rhs                 interdictionBudget                     1449
BOUNDS
 UP bnd                 C0000000                                  1
 UP bnd                 C0000001                                  1
 UP bnd                 C0000002                                  1
 UP bnd                 C0000003                                  1
 UP bnd                 C0000004                                  1
 UP bnd                 C0000005                                  1
 UP bnd                 C0000006                                  1
 UP bnd                 C0000007                                  1
 UP bnd                 C0000008                                  1
 UP bnd                 C0000009                                  1
 UP bnd                 x0                                        1
 UP bnd                 x1                                        1
 UP bnd                 x2                                        1
 UP bnd                 x3                                        1
 UP bnd                 x4                                        1
 UP bnd                 x5                                        1
 UP bnd                 x6                                        1
 UP bnd                 x7                                        1
 UP bnd                 x8                                        1
 UP bnd                 x9                                        1
ENDATA
